(set-option :produce-models true)
(set-logic QF_LRA)
(set-info :notes | Strip-packing problem.|)
(declare-fun x0 () Real)
(declare-fun y0 () Real)
(declare-fun x1 () Real)
(declare-fun y1 () Real)
(declare-fun x2 () Real)
(declare-fun y2 () Real)
(declare-fun x3 () Real)
(declare-fun y3 () Real)
(declare-fun x4 () Real)
(declare-fun y4 () Real)
(declare-fun x5 () Real)
(declare-fun y5 () Real)
(declare-fun x6 () Real)
(declare-fun y6 () Real)
(declare-fun x7 () Real)
(declare-fun y7 () Real)
(declare-fun x8 () Real)
(declare-fun y8 () Real)
(declare-fun x9 () Real)
(declare-fun y9 () Real)
(declare-fun x10 () Real)
(declare-fun y10 () Real)
(declare-fun x11 () Real)
(declare-fun y11 () Real)
(declare-fun x12 () Real)
(declare-fun y12 () Real)
(declare-fun x13 () Real)
(declare-fun y13 () Real)
(declare-fun x14 () Real)
(declare-fun y14 () Real)
(declare-fun z () Real)
(declare-fun c () Real)
(assert (and (= c z) (and (>= x0 0) 
(and (>= y0 0) 
(and (>= x1 0) 
(and (>= y1 0) 
(and (>= x2 0) 
(and (>= y2 0) 
(and (>= x3 0) 
(and (>= y3 0) 
(and (>= x4 0) 
(and (>= y4 0) 
(and (>= x5 0) 
(and (>= y5 0) 
(and (>= x6 0) 
(and (>= y6 0) 
(and (>= x7 0) 
(and (>= y7 0) 
(and (>= x8 0) 
(and (>= y8 0) 
(and (>= x9 0) 
(and (>= y9 0) 
(and (>= x10 0) 
(and (>= y10 0) 
(and (>= x11 0) 
(and (>= y11 0) 
(and (>= x12 0) 
(and (>= y12 0) 
(and (>= x13 0) 
(and (>= y13 0) 
(and (>= x14 0) 
(and (>= y14 0) 
(and (>= z 0) 
(and (>= c 0) 
(and (<= (+ x0 0.9062196258) z) 
(and (<= 0.8028379552 y0) 
(and (<= y0 1.0) 
(and (<= x0 (- 4.0437356867 0.9062196258)) 
(and (>= x0 0) 
(and (<= (+ x1 0.5149653721) z) 
(and (<= 0.7383785171 y1) 
(and (<= y1 1.0) 
(and (<= x1 (- 4.0437356867 0.5149653721)) 
(and (>= x1 0) 
(and (<= (+ x2 0.1948759502) z) 
(and (<= 0.7344789456 y2) 
(and (<= y2 1.0) 
(and (<= x2 (- 4.0437356867 0.1948759502)) 
(and (>= x2 0) 
(and (<= (+ x3 0.1557176752) z) 
(and (<= 0.6644179822 y3) 
(and (<= y3 1.0) 
(and (<= x3 (- 4.0437356867 0.1557176752)) 
(and (>= x3 0) 
(and (<= (+ x4 0.2701751674) z) 
(and (<= 0.5859935588 y4) 
(and (<= y4 1.0) 
(and (<= x4 (- 4.0437356867 0.2701751674)) 
(and (>= x4 0) 
(and (<= (+ x5 0.1952184867) z) 
(and (<= 0.5547875859 y5) 
(and (<= y5 1.0) 
(and (<= x5 (- 4.0437356867 0.1952184867)) 
(and (>= x5 0) 
(and (<= (+ x6 0.8070151242) z) 
(and (<= 0.4463848345 y6) 
(and (<= y6 1.0) 
(and (<= x6 (- 4.0437356867 0.8070151242)) 
(and (>= x6 0) 
(and (<= (+ x7 0.9995482851) z) 
(and (<= 0.3371814371 y7) 
(and (<= y7 1.0) 
(and (<= x7 (- 4.0437356867 0.9995482851)) 
(and (>= x7 0) 
(and (<= (+ x8 0.4616947804) z) 
(and (<= 0.3179482587 y8) 
(and (<= y8 1.0) 
(and (<= x8 (- 4.0437356867 0.4616947804)) 
(and (>= x8 0) 
(and (<= (+ x9 0.1966346904) z) 
(and (<= 0.3143101179 y9) 
(and (<= y9 1.0) 
(and (<= x9 (- 4.0437356867 0.1966346904)) 
(and (>= x9 0) 
(and (<= (+ x10 0.5297457429) z) 
(and (<= 0.2402693649 y10) 
(and (<= y10 1.0) 
(and (<= x10 (- 4.0437356867 0.5297457429)) 
(and (>= x10 0) 
(and (<= (+ x11 0.6268396279) z) 
(and (<= 0.2298601641 y11) 
(and (<= y11 1.0) 
(and (<= x11 (- 4.0437356867 0.6268396279)) 
(and (>= x11 0) 
(and (<= (+ x12 0.9068654078) z) 
(and (<= 0.1997172802 y12) 
(and (<= y12 1.0) 
(and (<= x12 (- 4.0437356867 0.9068654078)) 
(and (>= x12 0) 
(and (<= (+ x13 0.7273019143) z) 
(and (<= 0.1980845168 y13) 
(and (<= y13 1.0) 
(and (<= x13 (- 4.0437356867 0.7273019143)) 
(and (>= x13 0) 
(and (<= (+ x14 0.2066599162) z) 
(and (<= 0.1780459577 y14) 
(and (<= y14 1.0) 
(and (<= x14 (- 4.0437356867 0.2066599162)) 
(and (>= x14 0) 
(and (<= c 4.0437356867) 
(and (or (<= (+ x0 0.9062196258) x1) (or (<= (+ x1 0.5149653721) x0) (or (>= (- y0 0.8028379552) y1) (or (>= (- y1 0.7383785171) y0))))) 
(and (or (<= (+ x0 0.9062196258) x2) (or (<= (+ x2 0.1948759502) x0) (or (>= (- y0 0.8028379552) y2) (or (>= (- y2 0.7344789456) y0))))) 
(and (or (<= (+ x0 0.9062196258) x3) (or (<= (+ x3 0.1557176752) x0) (or (>= (- y0 0.8028379552) y3) (or (>= (- y3 0.6644179822) y0))))) 
(and (or (<= (+ x0 0.9062196258) x4) (or (<= (+ x4 0.2701751674) x0) (or (>= (- y0 0.8028379552) y4) (or (>= (- y4 0.5859935588) y0))))) 
(and (or (<= (+ x0 0.9062196258) x5) (or (<= (+ x5 0.1952184867) x0) (or (>= (- y0 0.8028379552) y5) (or (>= (- y5 0.5547875859) y0))))) 
(and (or (<= (+ x0 0.9062196258) x6) (or (<= (+ x6 0.8070151242) x0) (or (>= (- y0 0.8028379552) y6) (or (>= (- y6 0.4463848345) y0))))) 
(and (or (<= (+ x0 0.9062196258) x7) (or (<= (+ x7 0.9995482851) x0) (or (>= (- y0 0.8028379552) y7) (or (>= (- y7 0.3371814371) y0))))) 
(and (or (<= (+ x0 0.9062196258) x8) (or (<= (+ x8 0.4616947804) x0) (or (>= (- y0 0.8028379552) y8) (or (>= (- y8 0.3179482587) y0))))) 
(and (or (<= (+ x0 0.9062196258) x9) (or (<= (+ x9 0.1966346904) x0) (or (>= (- y0 0.8028379552) y9) (or (>= (- y9 0.3143101179) y0))))) 
(and (or (<= (+ x0 0.9062196258) x10) (or (<= (+ x10 0.5297457429) x0) (or (>= (- y0 0.8028379552) y10) (or (>= (- y10 0.2402693649) y0))))) 
(and (or (<= (+ x0 0.9062196258) x11) (or (<= (+ x11 0.6268396279) x0) (or (>= (- y0 0.8028379552) y11) (or (>= (- y11 0.2298601641) y0))))) 
(and (or (<= (+ x0 0.9062196258) x12) (or (<= (+ x12 0.9068654078) x0) (or (>= (- y0 0.8028379552) y12) (or (>= (- y12 0.1997172802) y0))))) 
(and (or (<= (+ x0 0.9062196258) x13) (or (<= (+ x13 0.7273019143) x0) (or (>= (- y0 0.8028379552) y13) (or (>= (- y13 0.1980845168) y0))))) 
(and (or (<= (+ x0 0.9062196258) x14) (or (<= (+ x14 0.2066599162) x0) (or (>= (- y0 0.8028379552) y14) (or (>= (- y14 0.1780459577) y0))))) 
(and (or (<= (+ x1 0.5149653721) x2) (or (<= (+ x2 0.1948759502) x1) (or (>= (- y1 0.7383785171) y2) (or (>= (- y2 0.7344789456) y1))))) 
(and (or (<= (+ x1 0.5149653721) x3) (or (<= (+ x3 0.1557176752) x1) (or (>= (- y1 0.7383785171) y3) (or (>= (- y3 0.6644179822) y1))))) 
(and (or (<= (+ x1 0.5149653721) x4) (or (<= (+ x4 0.2701751674) x1) (or (>= (- y1 0.7383785171) y4) (or (>= (- y4 0.5859935588) y1))))) 
(and (or (<= (+ x1 0.5149653721) x5) (or (<= (+ x5 0.1952184867) x1) (or (>= (- y1 0.7383785171) y5) (or (>= (- y5 0.5547875859) y1))))) 
(and (or (<= (+ x1 0.5149653721) x6) (or (<= (+ x6 0.8070151242) x1) (or (>= (- y1 0.7383785171) y6) (or (>= (- y6 0.4463848345) y1))))) 
(and (or (<= (+ x1 0.5149653721) x7) (or (<= (+ x7 0.9995482851) x1) (or (>= (- y1 0.7383785171) y7) (or (>= (- y7 0.3371814371) y1))))) 
(and (or (<= (+ x1 0.5149653721) x8) (or (<= (+ x8 0.4616947804) x1) (or (>= (- y1 0.7383785171) y8) (or (>= (- y8 0.3179482587) y1))))) 
(and (or (<= (+ x1 0.5149653721) x9) (or (<= (+ x9 0.1966346904) x1) (or (>= (- y1 0.7383785171) y9) (or (>= (- y9 0.3143101179) y1))))) 
(and (or (<= (+ x1 0.5149653721) x10) (or (<= (+ x10 0.5297457429) x1) (or (>= (- y1 0.7383785171) y10) (or (>= (- y10 0.2402693649) y1))))) 
(and (or (<= (+ x1 0.5149653721) x11) (or (<= (+ x11 0.6268396279) x1) (or (>= (- y1 0.7383785171) y11) (or (>= (- y11 0.2298601641) y1))))) 
(and (or (<= (+ x1 0.5149653721) x12) (or (<= (+ x12 0.9068654078) x1) (or (>= (- y1 0.7383785171) y12) (or (>= (- y12 0.1997172802) y1))))) 
(and (or (<= (+ x1 0.5149653721) x13) (or (<= (+ x13 0.7273019143) x1) (or (>= (- y1 0.7383785171) y13) (or (>= (- y13 0.1980845168) y1))))) 
(and (or (<= (+ x1 0.5149653721) x14) (or (<= (+ x14 0.2066599162) x1) (or (>= (- y1 0.7383785171) y14) (or (>= (- y14 0.1780459577) y1))))) 
(and (or (<= (+ x2 0.1948759502) x3) (or (<= (+ x3 0.1557176752) x2) (or (>= (- y2 0.7344789456) y3) (or (>= (- y3 0.6644179822) y2))))) 
(and (or (<= (+ x2 0.1948759502) x4) (or (<= (+ x4 0.2701751674) x2) (or (>= (- y2 0.7344789456) y4) (or (>= (- y4 0.5859935588) y2))))) 
(and (or (<= (+ x2 0.1948759502) x5) (or (<= (+ x5 0.1952184867) x2) (or (>= (- y2 0.7344789456) y5) (or (>= (- y5 0.5547875859) y2))))) 
(and (or (<= (+ x2 0.1948759502) x6) (or (<= (+ x6 0.8070151242) x2) (or (>= (- y2 0.7344789456) y6) (or (>= (- y6 0.4463848345) y2))))) 
(and (or (<= (+ x2 0.1948759502) x7) (or (<= (+ x7 0.9995482851) x2) (or (>= (- y2 0.7344789456) y7) (or (>= (- y7 0.3371814371) y2))))) 
(and (or (<= (+ x2 0.1948759502) x8) (or (<= (+ x8 0.4616947804) x2) (or (>= (- y2 0.7344789456) y8) (or (>= (- y8 0.3179482587) y2))))) 
(and (or (<= (+ x2 0.1948759502) x9) (or (<= (+ x9 0.1966346904) x2) (or (>= (- y2 0.7344789456) y9) (or (>= (- y9 0.3143101179) y2))))) 
(and (or (<= (+ x2 0.1948759502) x10) (or (<= (+ x10 0.5297457429) x2) (or (>= (- y2 0.7344789456) y10) (or (>= (- y10 0.2402693649) y2))))) 
(and (or (<= (+ x2 0.1948759502) x11) (or (<= (+ x11 0.6268396279) x2) (or (>= (- y2 0.7344789456) y11) (or (>= (- y11 0.2298601641) y2))))) 
(and (or (<= (+ x2 0.1948759502) x12) (or (<= (+ x12 0.9068654078) x2) (or (>= (- y2 0.7344789456) y12) (or (>= (- y12 0.1997172802) y2))))) 
(and (or (<= (+ x2 0.1948759502) x13) (or (<= (+ x13 0.7273019143) x2) (or (>= (- y2 0.7344789456) y13) (or (>= (- y13 0.1980845168) y2))))) 
(and (or (<= (+ x2 0.1948759502) x14) (or (<= (+ x14 0.2066599162) x2) (or (>= (- y2 0.7344789456) y14) (or (>= (- y14 0.1780459577) y2))))) 
(and (or (<= (+ x3 0.1557176752) x4) (or (<= (+ x4 0.2701751674) x3) (or (>= (- y3 0.6644179822) y4) (or (>= (- y4 0.5859935588) y3))))) 
(and (or (<= (+ x3 0.1557176752) x5) (or (<= (+ x5 0.1952184867) x3) (or (>= (- y3 0.6644179822) y5) (or (>= (- y5 0.5547875859) y3))))) 
(and (or (<= (+ x3 0.1557176752) x6) (or (<= (+ x6 0.8070151242) x3) (or (>= (- y3 0.6644179822) y6) (or (>= (- y6 0.4463848345) y3))))) 
(and (or (<= (+ x3 0.1557176752) x7) (or (<= (+ x7 0.9995482851) x3) (or (>= (- y3 0.6644179822) y7) (or (>= (- y7 0.3371814371) y3))))) 
(and (or (<= (+ x3 0.1557176752) x8) (or (<= (+ x8 0.4616947804) x3) (or (>= (- y3 0.6644179822) y8) (or (>= (- y8 0.3179482587) y3))))) 
(and (or (<= (+ x3 0.1557176752) x9) (or (<= (+ x9 0.1966346904) x3) (or (>= (- y3 0.6644179822) y9) (or (>= (- y9 0.3143101179) y3))))) 
(and (or (<= (+ x3 0.1557176752) x10) (or (<= (+ x10 0.5297457429) x3) (or (>= (- y3 0.6644179822) y10) (or (>= (- y10 0.2402693649) y3))))) 
(and (or (<= (+ x3 0.1557176752) x11) (or (<= (+ x11 0.6268396279) x3) (or (>= (- y3 0.6644179822) y11) (or (>= (- y11 0.2298601641) y3))))) 
(and (or (<= (+ x3 0.1557176752) x12) (or (<= (+ x12 0.9068654078) x3) (or (>= (- y3 0.6644179822) y12) (or (>= (- y12 0.1997172802) y3))))) 
(and (or (<= (+ x3 0.1557176752) x13) (or (<= (+ x13 0.7273019143) x3) (or (>= (- y3 0.6644179822) y13) (or (>= (- y13 0.1980845168) y3))))) 
(and (or (<= (+ x3 0.1557176752) x14) (or (<= (+ x14 0.2066599162) x3) (or (>= (- y3 0.6644179822) y14) (or (>= (- y14 0.1780459577) y3))))) 
(and (or (<= (+ x4 0.2701751674) x5) (or (<= (+ x5 0.1952184867) x4) (or (>= (- y4 0.5859935588) y5) (or (>= (- y5 0.5547875859) y4))))) 
(and (or (<= (+ x4 0.2701751674) x6) (or (<= (+ x6 0.8070151242) x4) (or (>= (- y4 0.5859935588) y6) (or (>= (- y6 0.4463848345) y4))))) 
(and (or (<= (+ x4 0.2701751674) x7) (or (<= (+ x7 0.9995482851) x4) (or (>= (- y4 0.5859935588) y7) (or (>= (- y7 0.3371814371) y4))))) 
(and (or (<= (+ x4 0.2701751674) x8) (or (<= (+ x8 0.4616947804) x4) (or (>= (- y4 0.5859935588) y8) (or (>= (- y8 0.3179482587) y4))))) 
(and (or (<= (+ x4 0.2701751674) x9) (or (<= (+ x9 0.1966346904) x4) (or (>= (- y4 0.5859935588) y9) (or (>= (- y9 0.3143101179) y4))))) 
(and (or (<= (+ x4 0.2701751674) x10) (or (<= (+ x10 0.5297457429) x4) (or (>= (- y4 0.5859935588) y10) (or (>= (- y10 0.2402693649) y4))))) 
(and (or (<= (+ x4 0.2701751674) x11) (or (<= (+ x11 0.6268396279) x4) (or (>= (- y4 0.5859935588) y11) (or (>= (- y11 0.2298601641) y4))))) 
(and (or (<= (+ x4 0.2701751674) x12) (or (<= (+ x12 0.9068654078) x4) (or (>= (- y4 0.5859935588) y12) (or (>= (- y12 0.1997172802) y4))))) 
(and (or (<= (+ x4 0.2701751674) x13) (or (<= (+ x13 0.7273019143) x4) (or (>= (- y4 0.5859935588) y13) (or (>= (- y13 0.1980845168) y4))))) 
(and (or (<= (+ x4 0.2701751674) x14) (or (<= (+ x14 0.2066599162) x4) (or (>= (- y4 0.5859935588) y14) (or (>= (- y14 0.1780459577) y4))))) 
(and (or (<= (+ x5 0.1952184867) x6) (or (<= (+ x6 0.8070151242) x5) (or (>= (- y5 0.5547875859) y6) (or (>= (- y6 0.4463848345) y5))))) 
(and (or (<= (+ x5 0.1952184867) x7) (or (<= (+ x7 0.9995482851) x5) (or (>= (- y5 0.5547875859) y7) (or (>= (- y7 0.3371814371) y5))))) 
(and (or (<= (+ x5 0.1952184867) x8) (or (<= (+ x8 0.4616947804) x5) (or (>= (- y5 0.5547875859) y8) (or (>= (- y8 0.3179482587) y5))))) 
(and (or (<= (+ x5 0.1952184867) x9) (or (<= (+ x9 0.1966346904) x5) (or (>= (- y5 0.5547875859) y9) (or (>= (- y9 0.3143101179) y5))))) 
(and (or (<= (+ x5 0.1952184867) x10) (or (<= (+ x10 0.5297457429) x5) (or (>= (- y5 0.5547875859) y10) (or (>= (- y10 0.2402693649) y5))))) 
(and (or (<= (+ x5 0.1952184867) x11) (or (<= (+ x11 0.6268396279) x5) (or (>= (- y5 0.5547875859) y11) (or (>= (- y11 0.2298601641) y5))))) 
(and (or (<= (+ x5 0.1952184867) x12) (or (<= (+ x12 0.9068654078) x5) (or (>= (- y5 0.5547875859) y12) (or (>= (- y12 0.1997172802) y5))))) 
(and (or (<= (+ x5 0.1952184867) x13) (or (<= (+ x13 0.7273019143) x5) (or (>= (- y5 0.5547875859) y13) (or (>= (- y13 0.1980845168) y5))))) 
(and (or (<= (+ x5 0.1952184867) x14) (or (<= (+ x14 0.2066599162) x5) (or (>= (- y5 0.5547875859) y14) (or (>= (- y14 0.1780459577) y5))))) 
(and (or (<= (+ x6 0.8070151242) x7) (or (<= (+ x7 0.9995482851) x6) (or (>= (- y6 0.4463848345) y7) (or (>= (- y7 0.3371814371) y6))))) 
(and (or (<= (+ x6 0.8070151242) x8) (or (<= (+ x8 0.4616947804) x6) (or (>= (- y6 0.4463848345) y8) (or (>= (- y8 0.3179482587) y6))))) 
(and (or (<= (+ x6 0.8070151242) x9) (or (<= (+ x9 0.1966346904) x6) (or (>= (- y6 0.4463848345) y9) (or (>= (- y9 0.3143101179) y6))))) 
(and (or (<= (+ x6 0.8070151242) x10) (or (<= (+ x10 0.5297457429) x6) (or (>= (- y6 0.4463848345) y10) (or (>= (- y10 0.2402693649) y6))))) 
(and (or (<= (+ x6 0.8070151242) x11) (or (<= (+ x11 0.6268396279) x6) (or (>= (- y6 0.4463848345) y11) (or (>= (- y11 0.2298601641) y6))))) 
(and (or (<= (+ x6 0.8070151242) x12) (or (<= (+ x12 0.9068654078) x6) (or (>= (- y6 0.4463848345) y12) (or (>= (- y12 0.1997172802) y6))))) 
(and (or (<= (+ x6 0.8070151242) x13) (or (<= (+ x13 0.7273019143) x6) (or (>= (- y6 0.4463848345) y13) (or (>= (- y13 0.1980845168) y6))))) 
(and (or (<= (+ x6 0.8070151242) x14) (or (<= (+ x14 0.2066599162) x6) (or (>= (- y6 0.4463848345) y14) (or (>= (- y14 0.1780459577) y6))))) 
(and (or (<= (+ x7 0.9995482851) x8) (or (<= (+ x8 0.4616947804) x7) (or (>= (- y7 0.3371814371) y8) (or (>= (- y8 0.3179482587) y7))))) 
(and (or (<= (+ x7 0.9995482851) x9) (or (<= (+ x9 0.1966346904) x7) (or (>= (- y7 0.3371814371) y9) (or (>= (- y9 0.3143101179) y7))))) 
(and (or (<= (+ x7 0.9995482851) x10) (or (<= (+ x10 0.5297457429) x7) (or (>= (- y7 0.3371814371) y10) (or (>= (- y10 0.2402693649) y7))))) 
(and (or (<= (+ x7 0.9995482851) x11) (or (<= (+ x11 0.6268396279) x7) (or (>= (- y7 0.3371814371) y11) (or (>= (- y11 0.2298601641) y7))))) 
(and (or (<= (+ x7 0.9995482851) x12) (or (<= (+ x12 0.9068654078) x7) (or (>= (- y7 0.3371814371) y12) (or (>= (- y12 0.1997172802) y7))))) 
(and (or (<= (+ x7 0.9995482851) x13) (or (<= (+ x13 0.7273019143) x7) (or (>= (- y7 0.3371814371) y13) (or (>= (- y13 0.1980845168) y7))))) 
(and (or (<= (+ x7 0.9995482851) x14) (or (<= (+ x14 0.2066599162) x7) (or (>= (- y7 0.3371814371) y14) (or (>= (- y14 0.1780459577) y7))))) 
(and (or (<= (+ x8 0.4616947804) x9) (or (<= (+ x9 0.1966346904) x8) (or (>= (- y8 0.3179482587) y9) (or (>= (- y9 0.3143101179) y8))))) 
(and (or (<= (+ x8 0.4616947804) x10) (or (<= (+ x10 0.5297457429) x8) (or (>= (- y8 0.3179482587) y10) (or (>= (- y10 0.2402693649) y8))))) 
(and (or (<= (+ x8 0.4616947804) x11) (or (<= (+ x11 0.6268396279) x8) (or (>= (- y8 0.3179482587) y11) (or (>= (- y11 0.2298601641) y8))))) 
(and (or (<= (+ x8 0.4616947804) x12) (or (<= (+ x12 0.9068654078) x8) (or (>= (- y8 0.3179482587) y12) (or (>= (- y12 0.1997172802) y8))))) 
(and (or (<= (+ x8 0.4616947804) x13) (or (<= (+ x13 0.7273019143) x8) (or (>= (- y8 0.3179482587) y13) (or (>= (- y13 0.1980845168) y8))))) 
(and (or (<= (+ x8 0.4616947804) x14) (or (<= (+ x14 0.2066599162) x8) (or (>= (- y8 0.3179482587) y14) (or (>= (- y14 0.1780459577) y8))))) 
(and (or (<= (+ x9 0.1966346904) x10) (or (<= (+ x10 0.5297457429) x9) (or (>= (- y9 0.3143101179) y10) (or (>= (- y10 0.2402693649) y9))))) 
(and (or (<= (+ x9 0.1966346904) x11) (or (<= (+ x11 0.6268396279) x9) (or (>= (- y9 0.3143101179) y11) (or (>= (- y11 0.2298601641) y9))))) 
(and (or (<= (+ x9 0.1966346904) x12) (or (<= (+ x12 0.9068654078) x9) (or (>= (- y9 0.3143101179) y12) (or (>= (- y12 0.1997172802) y9))))) 
(and (or (<= (+ x9 0.1966346904) x13) (or (<= (+ x13 0.7273019143) x9) (or (>= (- y9 0.3143101179) y13) (or (>= (- y13 0.1980845168) y9))))) 
(and (or (<= (+ x9 0.1966346904) x14) (or (<= (+ x14 0.2066599162) x9) (or (>= (- y9 0.3143101179) y14) (or (>= (- y14 0.1780459577) y9))))) 
(and (or (<= (+ x10 0.5297457429) x11) (or (<= (+ x11 0.6268396279) x10) (or (>= (- y10 0.2402693649) y11) (or (>= (- y11 0.2298601641) y10))))) 
(and (or (<= (+ x10 0.5297457429) x12) (or (<= (+ x12 0.9068654078) x10) (or (>= (- y10 0.2402693649) y12) (or (>= (- y12 0.1997172802) y10))))) 
(and (or (<= (+ x10 0.5297457429) x13) (or (<= (+ x13 0.7273019143) x10) (or (>= (- y10 0.2402693649) y13) (or (>= (- y13 0.1980845168) y10))))) 
(and (or (<= (+ x10 0.5297457429) x14) (or (<= (+ x14 0.2066599162) x10) (or (>= (- y10 0.2402693649) y14) (or (>= (- y14 0.1780459577) y10))))) 
(and (or (<= (+ x11 0.6268396279) x12) (or (<= (+ x12 0.9068654078) x11) (or (>= (- y11 0.2298601641) y12) (or (>= (- y12 0.1997172802) y11))))) 
(and (or (<= (+ x11 0.6268396279) x13) (or (<= (+ x13 0.7273019143) x11) (or (>= (- y11 0.2298601641) y13) (or (>= (- y13 0.1980845168) y11))))) 
(and (or (<= (+ x11 0.6268396279) x14) (or (<= (+ x14 0.2066599162) x11) (or (>= (- y11 0.2298601641) y14) (or (>= (- y14 0.1780459577) y11))))) 
(and (or (<= (+ x12 0.9068654078) x13) (or (<= (+ x13 0.7273019143) x12) (or (>= (- y12 0.1997172802) y13) (or (>= (- y13 0.1980845168) y12))))) 
(and (or (<= (+ x12 0.9068654078) x14) (or (<= (+ x14 0.2066599162) x12) (or (>= (- y12 0.1997172802) y14) (or (>= (- y14 0.1780459577) y12))))) 
(and (or (<= (+ x13 0.7273019143) x14) (or (<= (+ x14 0.2066599162) x13) (or (>= (- y13 0.1980845168) y14) (or (>= (- y14 0.1780459577) y13))))) )))))))))))))))))))))))))))))))))))))))))))))))))))))))))))))))))))))))))))))))))))))))))))))))))))))))))))))))))))))))))))))))))))))))))))))))))))))))))))))))))))))))))))))))))))))))))))))))))))))))))))))))))))))))
(minimize c)
(check-sat)
(get-objectives)
(exit)
